desiredZ=[1];
nNurses = 245;
hours = 92;
demand = [30 8 51 20 50 55 20 58 36 28 22 26 25 59 41 45 3 45 45 33 7 31 59 1 31 50 17 49 33 23 30 5 52 16 20 24 40 3 19 57 0 60 19 24 56 17 18 3 30 22 9 54 31 40 46 16 53 16 31 44 9 43 16 35 0 58 32 50 25 7 26 25 53 8 6 45 10 9 15 33 33 4 52 36 18 46 7 6 20 20 53 59];
minHours = 35;
maxHours = 52;
maxConsec = 51;
maxPresence = 66;